n_res = 4;
rc = [ 0, 0, 0, 0 ];
n_tasks = 30;
d = [ 6, 4, 6, 8, 8, 8, 3, 9, 7, 2, 6, 5, 8, 9, 8, 10, 5, 3, 8, 9, 7, 6, 10, 8, 10, 5, 6, 2, 9, 5 ];
rr = [| 0, 0, 0, 0, 0, 0, 0, 0, 0, 0, 0, 0, 0, 0, 0, 0, 0, 0, 0, 0, 0, 0, 0, 0, 0, 0, 0, 0, 0, 0
      | 0, 0, 0, 0, 0, 0, 0, 0, 0, 0, 0, 0, 0, 0, 0, 0, 0, 0, 0, 0, 0, 0, 0, 0, 0, 0, 0, 0, 0, 0
      | 0, 0, 0, 0, 0, 0, 0, 0, 0, 0, 0, 0, 0, 0, 0, 0, 0, 0, 0, 0, 0, 0, 0, 0, 0, 0, 0, 0, 0, 0
      | 0, 0, 0, 0, 0, 0, 0, 0, 0, 0, 0, 0, 0, 0, 0, 0, 0, 0, 0, 0, 0, 0, 0, 0, 0, 0, 0, 0, 0, 0 |];
suc = [ { 10, 21, 23 },
       { 4, 7, 14 },
       { 5, 11, 17 },
       { 6, 9, 10 },
       { 8, 13, 28 },
       { 8, 13, 18 },
       { 10, 12, 24 },
       { 15, 24 },
       { 19, 20, 27 },
       { 29 },
       { 13, 15, 20 },
       { 16, 17, 18 },
       { 16, 25, 27 },
       { 18, 19, 20 },
       { 16, 23 },
       { 22 },
       { 19, 23, 25 },
       { 28 },
       { 21, 22 },
       { 21, 22, 24 },
       { 28, 30 },
       { 26 },
       { 26, 27 },
       { 25 },
       { 26 },
       { 29, 30 },
       { 29, 30 },
       {  },
       {  },
       {  } ];
